NAME          CLEAN_FUELS_BLENDING
OBJSENSE
  MAX
ROWS
 N  PROFIT
 L  SULFUR_CAP
 L  BENZENE_CAP
 L  AROMATICS_CAP
 G  OCTANE_MIN
 L  TOTAL_SUPPLY
 G  DEMAND_MIN
COLUMNS
    REFORMATE  PROFIT       120.0
    REFORMATE  SULFUR_CAP     2.0
    REFORMATE  BENZENE_CAP    1.2
    REFORMATE  AROMATICS_CAP 35.0
    REFORMATE  OCTANE_MIN   101.5
    REFORMATE  TOTAL_SUPPLY   1.0
    REFORMATE  DEMAND_MIN     1.0

    FCC_GASO   PROFIT        98.0
    FCC_GASO   SULFUR_CAP    18.0
    FCC_GASO   BENZENE_CAP    0.6
    FCC_GASO   AROMATICS_CAP 22.0
    FCC_GASO   OCTANE_MIN    92.0
    FCC_GASO   TOTAL_SUPPLY   1.0
    FCC_GASO   DEMAND_MIN     1.0

    ALKYLATE   PROFIT       135.0
    ALKYLATE   SULFUR_CAP     0.5
    ALKYLATE   BENZENE_CAP    0.1
    ALKYLATE   AROMATICS_CAP  0.2
    ALKYLATE   OCTANE_MIN    96.0
    ALKYLATE   TOTAL_SUPPLY   1.0
    ALKYLATE   DEMAND_MIN     1.0

    ISOMERATE  PROFIT        92.0
    ISOMERATE  SULFUR_CAP     1.0
    ISOMERATE  BENZENE_CAP    0.2
    ISOMERATE  AROMATICS_CAP  1.5
    ISOMERATE  OCTANE_MIN    88.0
    ISOMERATE  TOTAL_SUPPLY   1.0
    ISOMERATE  DEMAND_MIN     1.0
RHS
    RHS1  SULFUR_CAP     100.0
    RHS1  BENZENE_CAP     10.0
    RHS1  AROMATICS_CAP  300.0
    RHS1  OCTANE_MIN     950.0
    RHS1  TOTAL_SUPPLY    20.0
    RHS1  DEMAND_MIN      10.0
BOUNDS
 LO BND1 REFORMATE  1.0
 UP BND1 REFORMATE  8.0
 LO BND1 FCC_GASO   1.0
 UP BND1 FCC_GASO   6.0
 LO BND1 ALKYLATE   0.5
 UP BND1 ALKYLATE   5.0
 LO BND1 ISOMERATE  0.5
 UP BND1 ISOMERATE  5.0
ENDATA
